TOUR_SECTION
190
90
103
157
111
28
83
117
94
146
27
9
58
200
105
102
23
108
15
40
56
73
14
71
137
51
115
161
32
196
44
164
193
123
97
188
186
69
153
191
8
154
136
169
37
85
66
80
48
29
16
194
49
81
35
181
6
150
55
91
138
112
22
88
86
19
1
109
127
171
46
107
135
116
82
5
78
43
128
143
144
11
42
79
119
64
178
172
125
182
61
17
170
183
145
63
75
62
198
52
158
118
38
189
179
176
120
149
148
53
26
4
74
199
130
141
173
50
84
41
99
2
33
187
101
30
89
132
124
12
104
13
92
131
36
68
152
18
134
34
59
155
162
174
139
10
20
77
31
185
25
151
163
142
156
114
168
129
147
24
192
167
65
159
72
177
110
57
140
195
180
133
3
95
39
100
21
45
121
98
67
175
165
113
70
106
60
184
54
47
96
76
87
93
122
7
126
166
160
197
-1
EOF